c SAT Generator for power-law distributed variable frequencies
c -g u -v 20 -c 91 -k 3 -p 2.750000 -b 3.200000 -f /home/schmidt/Devel/ni-kop-sat/data/ensemble/ruf20-91/ruf20-91-60 -u 1 -U 1 -s 1059781945
p cnf 20 91
4 -17 18 0
-3 5 -6 0
-1 3 11 0
1 -15 17 0
-5 9 -19 0
-1 -10 18 0
-1 12 -13 0
5 16 -19 0
12 -14 -17 0
15 18 -20 0
9 13 17 0
-5 10 19 0
-3 -12 -20 0
1 -11 18 0
-7 -9 12 0
-2 6 -10 0
3 -6 -16 0
-10 -14 -16 0
-3 -9 -17 0
-2 -12 13 0
9 16 20 0
-3 13 -15 0
5 12 -13 0
1 -11 -14 0
-4 -11 12 0
-11 -14 -18 0
2 15 -17 0
6 10 -11 0
-2 -12 -14 0
5 14 -16 0
-10 -16 19 0
-2 5 -13 0
6 -8 -11 0
-3 -6 -20 0
-8 11 -16 0
-3 5 11 0
-11 -14 -20 0
3 7 -8 0
15 17 19 0
-6 -17 -19 0
-4 -6 15 0
-16 -17 19 0
2 14 20 0
11 12 -13 0
3 7 -19 0
1 -2 18 0
-1 6 -14 0
-7 11 -20 0
3 9 -11 0
11 13 -20 0
10 14 -16 0
8 12 -18 0
-5 8 13 0
9 -10 11 0
1 7 8 0
4 11 12 0
-6 13 17 0
-4 10 13 0
-8 14 15 0
-1 -4 -5 0
9 -11 12 0
-8 -10 -20 0
6 8 -19 0
-5 9 18 0
-1 9 -14 0
8 12 15 0
-4 -9 -17 0
5 10 13 0
6 -16 -20 0
-5 10 20 0
-6 -10 -15 0
10 -15 -18 0
-4 -9 -12 0
-5 -6 12 0
5 13 18 0
5 -16 19 0
12 14 -16 0
9 12 19 0
-2 10 12 0
-3 -5 -6 0
11 14 20 0
5 -6 -13 0
-5 -8 -11 0
4 11 -17 0
-4 10 11 0
5 14 19 0
5 9 10 0
9 10 16 0
-4 10 14 0
-3 10 -13 0
10 15 18 0
